s td 11 20 30
b 1 1 2 3 4 5 8 9 10 13 15 17 19 20 22 23 24 26 27 28 30
b 2 1 2 3 4 8 9 10 13 15 17 19 20 21 22 23 24 26 27 28 30
b 3 1 2 3 4 6 8 9 10 13 15 17 20 21 22 23 24 26 27 28 30
b 4 1 2 3 4 6 8 9 10 13 15 17 20 21 22 24 25 26 28 30
b 5 1 4 8 10 13 15 17 18 22 24 25 28
b 6 1 3 7 8 9 10 13 20 21 22 24 26
b 7 2 3 4 5 8 9 10 13 15 17 19 20 22 23 24 27 28 29 30
b 8 2 3 4 5 9 10 11 13 15 17 19 20 22 23 24 27 28 29
b 9 10 11 13 16 17 19 20 22 24 27 28
b 10 1 2 3 4 5 8 10 14 15 17 19 20 22 26 27 28 30
b 11 2 3 5 8 10 12 14 15 19 20 22 27
1 2
1 7
1 10
2 3
2 6
3 4
4 5
7 8
8 9
10 11
